proyfinal/src/viki/013/andrea/andrea-localstore/experimentInOfficeAgust.take6/worker_10/df7b31bf-f6d1-439b-a9e9-7752776d7f6e.als.cnf.out
Reading from standard input... Use '--help' for help.
============================[ Problem Statistics ]=============================
|                                                                             |
|  Number of variables:         87638                                         |
|  Number of clauses:          161767                                         |
|  Parse time:                   0.04 s                                       |
|                                                                             |
============================[ Search Statistics ]==============================
| Conflicts |          ORIGINAL         |          LEARNT          | Progress |
|           |    Vars  Clauses Literals |    Limit  Clauses Lit/Cl |          |
===============================================================================
|       100 |   65097   115083   287159 |    42197      100     24 | 25.721 % |
|       250 |   65097   115083   287159 |    46416      250     29 | 25.721 % |
|       475 |   65073   114983   286930 |    51058      473     39 | 25.748 % |
|       812 |   65073   114983   286930 |    56164      810     48 | 25.748 % |
|      1318 |   65073   114983   286930 |    61780     1316     56 | 25.748 % |
|      2077 |   57336    91573   229448 |    67958     2055     78 | 34.576 % |
|      3216 |   57296    91380   228991 |    74754     3160     78 | 34.622 % |
|      4924 |   57180    91035   228121 |    82230     4847     76 | 34.754 % |
|      7486 |   57180    91035   228121 |    90453     7409     88 | 34.754 % |
|     11330 |   57094    90670   227294 |    99498    11235     89 | 34.852 % |
|     17096 |   57073    90536   226990 |   109448    16989     90 | 34.876 % |
===============================================================================
restarts              : 73
conflicts             : 20719          (7477 /sec)
decisions             : 95352          (0.00 % random) (34410 /sec)
propagations          : 30246174       (10915000 /sec)
conflict literals     : 2049529        (33.23 % deleted)
Memory used           : 39.62 MB
CPU time              : 2.77107 s

INDETERMINATE
